
******************************************************************************
This program contains Ipopt, a library for large-scale nonlinear optimization.
 Ipopt is released as open source code under the Eclipse Public License (EPL).
         For more information visit http://projects.coin-or.org/Ipopt
******************************************************************************

This is Ipopt version 3.12.6, running with linear solver ma57.

Number of nonzeros in equality constraint Jacobian...:    12500
Number of nonzeros in inequality constraint Jacobian.:        0
Number of nonzeros in Lagrangian Hessian.............:    22506

Total number of variables............................:     5003
                     variables with only lower bounds:        0
                variables with lower and upper bounds:        0
                     variables with only upper bounds:        0
Total number of equality constraints.................:     2500
Total number of inequality constraints...............:        0
        inequality constraints with only lower bounds:        0
   inequality constraints with lower and upper bounds:        0
        inequality constraints with only upper bounds:        0

iter    objective    inf_pr   inf_du lg(mu)  ||d||  lg(rg) alpha_du alpha_pr  ls
   0  1.0946581e+02 4.67e+02 6.28e+00  -1.0 0.00e+00    -  0.00e+00 0.00e+00   0
   1  1.3737027e+03 9.39e+02 4.37e+06  -1.0 6.01e+00   2.0 1.00e+00 1.00e+00h  1
   2  2.6223310e+03 2.88e+02 2.57e+08  -1.0 1.07e+00   5.1 1.00e+00 1.00e+00h  1
   3  2.2510516e+03 8.19e+01 3.19e+08  -1.0 7.42e-01   6.5 1.00e+00 1.00e+00f  1
   4  2.1382263e+03 1.77e+01 6.47e+06  -1.0 3.80e-01   6.0 1.00e+00 1.00e+00f  1
   5  2.1072112e+03 1.94e+00 1.78e+06  -1.0 1.41e-01   5.5 1.00e+00 1.00e+00f  1
   6  2.1035948e+03 3.47e-02 6.65e+04  -1.0 1.96e-02   5.0 1.00e+00 1.00e+00h  1
   7  2.1034310e+03 1.13e-05 6.58e+01  -1.0 4.20e-04   4.6 1.00e+00 1.00e+00h  1
   8  1.1919012e+03 4.88e+01 1.95e+02  -1.0 1.49e+00    -  1.00e+00 1.00e+00f  1
   9  1.1707272e+03 7.23e+00 7.02e+03  -1.0 2.88e-01   4.1 1.00e+00 1.00e+00h  1
iter    objective    inf_pr   inf_du lg(mu)  ||d||  lg(rg) alpha_du alpha_pr  ls
  10  1.1679686e+03 2.42e-01 8.23e+02  -1.0 5.31e-02   3.6 1.00e+00 1.00e+00h  1
  11  1.1446851e+03 2.30e+01 6.90e+01  -1.0 1.06e+00    -  1.00e+00 1.00e+00f  1
  12  1.1407330e+03 1.96e+00 1.67e+02  -1.0 1.51e-01   3.1 1.00e+00 1.00e+00h  1
  13  1.1391904e+03 2.14e-02 9.28e+00  -1.0 2.06e-02   2.6 1.00e+00 1.00e+00h  1
  14  1.1352353e+03 6.31e-02 9.19e+00  -1.0 6.21e-02   2.2 1.00e+00 1.00e+00f  1
  15  1.1233403e+03 5.82e-01 9.31e+00  -1.0 1.89e-01   1.7 1.00e+00 1.00e+00f  1
  16  1.0877200e+03 5.67e+00 9.62e+00  -1.0 5.89e-01   1.2 1.00e+00 1.00e+00f  1
  17  9.8644129e+02 7.18e+01 4.50e+01  -1.0 1.92e+00   0.7 1.00e+00 1.00e+00f  1
  18  8.4575624e+02 1.10e+03 2.49e+02  -1.0 8.85e+00   0.3 1.00e+00 5.00e-01f  2
  19  8.1203443e+02 3.18e+02 2.28e+02  -1.0 1.19e+00   1.6 1.00e+00 1.00e+00h  1
iter    objective    inf_pr   inf_du lg(mu)  ||d||  lg(rg) alpha_du alpha_pr  ls
  20  7.7651727e+02 9.77e+01 2.12e+01  -1.0 1.24e+00    -  1.00e+00 1.00e+00f  1
  21  7.6815014e+02 1.95e+02 9.20e+00  -1.0 2.60e+00    -  1.00e+00 1.00e+00f  1
  22  7.6475729e+02 8.90e+01 3.01e+00  -1.0 1.47e+00    -  1.00e+00 1.00e+00h  1
  23  7.6289484e+02 4.00e+01 1.14e+00  -1.0 1.18e+00    -  1.00e+00 1.00e+00h  1
  24  7.6218662e+02 6.96e+00 1.77e-01  -1.0 3.80e-01    -  1.00e+00 1.00e+00h  1
  25  7.6206886e+02 2.69e-01 1.08e-02  -1.0 5.53e-02    -  1.00e+00 1.00e+00h  1
  26  7.6206433e+02 4.31e-04 3.24e-05  -1.7 2.12e-03    -  1.00e+00 1.00e+00h  1
  27  7.6206432e+02 1.23e-09 1.55e-10  -5.7 4.19e-06    -  1.00e+00 1.00e+00h  1

Number of Iterations....: 27

                                   (scaled)                 (unscaled)
Objective...............:   7.6206432193090882e+02    7.6206432193090882e+02
Dual infeasibility......:   1.5450307699893528e-10    1.5450307699893528e-10
Constraint violation....:   1.2275620520085795e-09    1.2275620520085795e-09
Complementarity.........:   0.0000000000000000e+00    0.0000000000000000e+00
Overall NLP error.......:   1.2275620520085795e-09    1.2275620520085795e-09


Number of objective function evaluations             = 30
Number of objective gradient evaluations             = 28
Number of equality constraint evaluations            = 30
Number of inequality constraint evaluations          = 0
Number of equality constraint Jacobian evaluations   = 28
Number of inequality constraint Jacobian evaluations = 0
Number of Lagrangian Hessian evaluations             = 27
Total CPU secs in IPOPT (w/o function evaluations)   =      0.093
Total CPU secs in NLP function evaluations           =      0.107

EXIT: Optimal Solution Found.

************************ CUTEst statistics ************************


 Package used            :  IPOPT
 Problem                 :  ORTHRGDS  
 # variables             =            5003
 # constraints           =            2500
 # objective functions   =        0.5900000E+02
 # objective gradients   =        0.2900000E+02
 # objective Hessians    =        0.2800000E+02
 # Hessian-vector prdct  =        0.0000000E+00
 # constraints functions =        0.6000000E+02
 # constraints gradients =        0.3000000E+02
 # constraints Hessians  =        0.2800000E+02
 Exit code               =               0
 Final f                 =   0.7620643E+03
 Set up time             =            0.41 seconds
 Solve time              =            0.21 seconds


******************************************************************

System Time =       0.2070000023 s.
